
Gurobi 5.6.3 (win64) logging started 10/09/14 08:44:41


Gurobi 5.6.3 (win64) logging started 10/09/14 10:29:45


Gurobi 5.6.3 (win64) logging started 10/09/14 10:30:46


Gurobi 5.6.3 (win64) logging started 10/09/14 10:35:22


Gurobi 5.6.3 (win64) logging started 10/09/14 10:45:17

